(set-logic QF_LIA)
(set-info :ran/ran2.smt2)
(set-info :smt-lib-version 2.0)
(declare-fun x1 () Int)
(declare-fun x2 () Int)
(declare-fun x3 () Int)
(declare-fun x4 () Int)
(declare-fun x5 () Int)
(declare-fun x6 () Int)
(assert (<= (+ (* 1 x1) (* (- 10) x2) (* 0 x3) (* (- 10) x4) (* 5 x5) (* 9 x6) ) (- 1140)))
(assert (<= (+ (* 10 x1) (* (- 5) x2) (* (- 9) x3) (* 0 x4) (* (- 3) x5) (* (- 4) x6) ) 1627))
(assert (<= (+ (* 7 x1) (* 5 x2) (* 9 x3) (* (- 10) x4) (* (- 8) x5) (* (- 3) x6) ) 668))
(assert (<= (+ (* 1 x1) (* 2 x2) (* (- 5) x3) (* 8 x4) (* (- 2) x5) (* 8 x6) ) 3743))
(assert (<= (+ (* (- 6) x1) (* 2 x2) (* (- 10) x3) (* 4 x4) (* 0 x5) (* (- 2) x6) ) 2968))
(assert (<= (+ (* (- 5) x1) (* (- 3) x2) (* (- 10) x3) (* (- 8) x4) (* 0 x5) (* (- 9) x6) ) (- 2024)))
(assert (<= (+ (* 7 x1) (* (- 2) x2) (* (- 10) x3) (* 1 x4) (* (- 10) x5) (* 7 x6) ) (- 1430)))
(assert (<= (+ (* (- 10) x1) (* (- 8) x2) (* (- 10) x3) (* (- 1) x4) (* 2 x5) (* (- 5) x6) ) (- 3817)))
(assert (<= (+ (* 8 x1) (* (- 10) x2) (* 0 x3) (* (- 10) x4) (* 3 x5) (* 1 x6) ) 3755))
(assert (<= (+ (* (- 10) x1) (* 9 x2) (* (- 7) x3) (* (- 5) x4) (* (- 7) x5) (* (- 7) x6) ) (- 386)))
(assert (<= (+ (* 3 x1) (* (- 8) x2) (* 7 x3) (* (- 3) x4) (* (- 2) x5) (* 5 x6) ) (- 3589)))
(assert (<= (+ (* (- 2) x1) (* 1 x2) (* (- 3) x3) (* (- 3) x4) (* 1 x5) (* (- 3) x6) ) (- 1847)))
(assert (<= (+ (* 1 x1) (* 0 x2) (* 0 x3) (* 0 x4) (* 0 x5) (* 0 x6) ) 3981))
(assert (<= (+ (* (- 1) x1) (* 0 x2) (* 0 x3) (* 0 x4) (* 0 x5) (* 0 x6) ) 3981))
(assert (<= (+ (* 0 x1) (* 1 x2) (* 0 x3) (* 0 x4) (* 0 x5) (* 0 x6) ) 3981))
(assert (<= (+ (* 0 x1) (* (- 1) x2) (* 0 x3) (* 0 x4) (* 0 x5) (* 0 x6) ) 3981))
(assert (<= (+ (* 0 x1) (* 0 x2) (* 1 x3) (* 0 x4) (* 0 x5) (* 0 x6) ) 3981))
(assert (<= (+ (* 0 x1) (* 0 x2) (* (- 1) x3) (* 0 x4) (* 0 x5) (* 0 x6) ) 3981))
(assert (<= (+ (* 0 x1) (* 0 x2) (* 0 x3) (* 1 x4) (* 0 x5) (* 0 x6) ) 3981))
(assert (<= (+ (* 0 x1) (* 0 x2) (* 0 x3) (* (- 1) x4) (* 0 x5) (* 0 x6) ) 3981))
(assert (<= (+ (* 0 x1) (* 0 x2) (* 0 x3) (* 0 x4) (* 1 x5) (* 0 x6) ) 3981))
(assert (<= (+ (* 0 x1) (* 0 x2) (* 0 x3) (* 0 x4) (* (- 1) x5) (* 0 x6) ) 3981))
(assert (<= (+ (* 0 x1) (* 0 x2) (* 0 x3) (* 0 x4) (* 0 x5) (* 1 x6) ) 3981))
(assert (<= (+ (* 0 x1) (* 0 x2) (* 0 x3) (* 0 x4) (* 0 x5) (* (- 1) x6) ) 3981))
